c description: Random 3-CNF over 25 variables and 107 clauses
c generator: CNFgen (0.9.2)
c copyright: (C) 2012-2022 Massimo Lauria <massimo.lauria@uniroma1.it>
c url: https://massimolauria.net/cnfgen
c command line: cnfgen --output CNF_4.28/25_bit_107_41.cnf randkcnf 3 25 107
c
p cnf 25 107
-5 11 -23 0
6 -8 22 0
-4 5 20 0
3 14 18 0
-11 -17 -25 0
9 15 22 0
-2 -6 21 0
8 21 25 0
-3 7 11 0
-7 12 -21 0
1 -3 19 0
-2 -20 -21 0
3 -16 -25 0
-3 12 -18 0
-12 20 25 0
15 -21 -22 0
-7 -8 -21 0
17 21 22 0
1 -4 -10 0
-3 5 24 0
-1 -8 -22 0
5 -22 -23 0
-8 17 22 0
-7 8 -22 0
1 18 -19 0
1 -2 24 0
5 6 21 0
5 -19 -25 0
-6 -17 20 0
10 15 -22 0
13 -16 18 0
2 -10 25 0
4 -10 22 0
5 -13 25 0
10 -13 -24 0
1 13 -19 0
-9 12 -25 0
-18 -20 23 0
-21 -22 -25 0
5 -8 9 0
5 -10 -18 0
-2 9 -19 0
-10 -23 25 0
2 14 21 0
7 -16 -21 0
-6 -7 -14 0
5 9 -19 0
6 -14 20 0
-5 13 -17 0
3 -5 16 0
18 -21 23 0
-9 -14 -17 0
-1 6 14 0
-10 14 -16 0
9 14 -19 0
1 -17 -19 0
-2 20 24 0
3 15 -23 0
-16 -18 -24 0
-4 8 -21 0
-4 10 19 0
-12 18 -25 0
6 -18 -20 0
2 15 -25 0
-2 -5 -15 0
20 -22 24 0
-12 17 -22 0
1 2 3 0
-4 10 12 0
-8 -9 17 0
5 -11 -24 0
-3 12 17 0
-17 18 -23 0
-9 21 22 0
14 15 -23 0
-6 14 24 0
19 20 21 0
12 18 -20 0
-6 8 -12 0
-6 -17 18 0
6 -8 20 0
-6 -11 -12 0
7 -10 15 0
-3 -18 -25 0
2 -8 -14 0
3 20 22 0
-9 -14 24 0
5 -10 21 0
-3 -6 10 0
-4 -10 -16 0
-2 -5 -18 0
12 -17 -18 0
-2 10 21 0
3 5 11 0
3 -17 -23 0
-3 -4 -12 0
-7 -9 14 0
9 -11 12 0
-2 -11 13 0
4 10 -17 0
7 16 20 0
-2 4 11 0
4 -6 21 0
6 -8 -18 0
17 21 -23 0
-8 -10 -20 0
7 -10 -12 0
